c instance by G2
c solution = 0100111010101100101001011
c Known solution cost is 994 
p cnf 25 30
w 74 21 38 74 41 44 20 22 50 86 1 23 74 84 11 0 41 21 37 79 7 11 41 74 20
-22 1 14 0
-5 4 -10 0
-2 21 -16 0
-22 15 25 0
9 -19 -17 0
12 -3 -5 0
-11 9 10 0
-9 -23 -6 0
-24 -2 17 0
23 -14 22 0
23 11 10 0
16 -9 2 0
10 6 -7 0
16 21 7 0
-18 -19 4 0
-22 -1 -14 0
23 13 -14 0
1 24 10 0
18 20 5 0
-25 -21 -11 0
3 -4 18 0
-15 -6 4 0
-9 7 -25 0
-23 8 -17 0
-13 18 -10 0
10 -12 18 0
17 5 21 0
1 -20 10 0
-8 -24 -6 0
19 15 -25 0
